\ Model QCP
\ LP format - for model browsing. Use MPS format to capture full model detail.
Minimize
  z + 4 y
Subject To
 Cut_0: z + [ ] >= 829
 Cut_1: z + [ 30 y ^2 ] >= 6369
 Cut_2: z + [ 5.526315789473684 y ^2 ] >= 1963.736842105263
 Cut_3: z + [ 4.375 y ^2 ] >= 1734.624999999999
 Cut_4: z + [ ] >= 829
Bounds
 829 <= z <= 1149
 13.19090595827292 <= y <= 16.1245154965971
End
